nN = 10;
nR = 60;
nH = 1;

a = [[20, 22, 15, 15, 25, 20, 18, 17, 17, 22, 16, 19, 24, 22, 25, 17, 15, 16, 22, 19, 21, 16, 17, 17, 15, 24, 25, 23, 23, 17, 25, 19, 23, 17, 21, 17, 24, 24, 16, 15, 18, 18, 23, 23, 15, 18, 23, 22, 18, 17, 19, 24, 25, 16, 18, 18, 15, 21, 23, 17], [17, 22, 15, 18, 17, 17, 24, 21, 21, 16, 19, 22, 21, 19, 18, 19, 23, 19, 15, 20, 16, 20, 18, 19, 18, 16, 19, 23, 20, 24, 18, 15, 15, 17, 18, 17, 18, 25, 21, 22, 18, 22, 24, 22, 16, 17, 23, 17, 22, 22, 23, 23, 19, 15, 22, 15, 24, 22, 18, 20], [18, 15, 24, 22, 20, 15, 19, 15, 23, 17, 15, 17, 23, 21, 20, 15, 18, 20, 25, 23, 21, 23, 17, 22, 15, 21, 16, 25, 24, 18, 25, 18, 16, 19, 19, 17, 15, 16, 17, 19, 22, 24, 24, 21, 20, 20, 22, 17, 19, 18, 16, 16, 25, 17, 15, 24, 15, 17, 24, 23], [18, 22, 24, 23, 18, 22, 24, 17, 20, 22, 23, 24, 18, 21, 16, 16, 22, 21, 17, 19, 17, 15, 20, 15, 19, 20, 18, 16, 23, 23, 20, 19, 20, 18, 23, 16, 18, 16, 24, 25, 20, 20, 22, 15, 21, 23, 21, 19, 16, 22, 20, 15, 18, 23, 15, 23, 19, 17, 24, 16], [22, 19, 20, 24, 25, 15, 17, 25, 17, 15, 24, 16, 17, 23, 24, 23, 20, 20, 18, 18, 23, 19, 17, 24, 18, 15, 22, 17, 24, 25, 23, 19, 21, 15, 24, 19, 24, 20, 17, 25, 20, 22, 25, 24, 19, 23, 21, 20, 17, 17, 16, 18, 16, 17, 15, 24, 23, 21, 19, 21], [15, 21, 16, 22, 21, 15, 18, 17, 17, 16, 24, 20, 15, 15, 21, 23, 19, 17, 15, 22, 25, 25, 16, 16, 16, 20, 17, 15, 19, 21, 16, 25, 24, 23, 22, 24, 20, 19, 24, 21, 19, 18, 23, 20, 15, 21, 20, 15, 22, 23, 15, 24, 23, 23, 17, 25, 21, 23, 18, 18], [24, 16, 16, 23, 16, 19, 25, 20, 20, 19, 21, 23, 24, 18, 24, 24, 21, 18, 25, 22, 15, 15, 16, 23, 17, 21, 23, 21, 19, 24, 16, 15, 19, 25, 21, 17, 15, 23, 16, 25, 23, 25, 25, 19, 22, 22, 22, 25, 23, 20, 23, 25, 16, 24, 18, 20, 23, 22, 20, 24], [23, 20, 24, 16, 17, 18, 16, 16, 24, 25, 23, 25, 15, 17, 23, 16, 21, 18, 17, 23, 16, 22, 15, 21, 16, 25, 24, 19, 15, 18, 19, 17, 16, 19, 16, 22, 22, 18, 24, 24, 21, 25, 15, 21, 16, 20, 16, 17, 24, 16, 25, 23, 21, 19, 16, 17, 19, 17, 15, 21], [19, 21, 22, 17, 15, 20, 25, 24, 16, 20, 19, 25, 24, 25, 19, 19, 21, 19, 25, 20, 23, 15, 22, 21, 16, 16, 21, 23, 25, 22, 22, 23, 19, 15, 25, 18, 15, 19, 19, 21, 15, 17, 16, 21, 19, 18, 24, 24, 24, 22, 20, 18, 19, 25, 16, 25, 18, 17, 22, 23], [19, 19, 22, 19, 17, 17, 23, 25, 22, 17, 19, 18, 19, 16, 23, 22, 24, 17, 18, 20, 24, 24, 23, 25, 17, 23, 16, 22, 16, 17, 25, 18, 21, 19, 22, 25, 22, 17, 18, 16, 21, 23, 23, 25, 18, 19, 15, 21, 19, 22, 18, 19, 23, 17, 16, 17, 19, 16, 23, 21]];
c = [[[0, 0, 0, 0, 0, 0, 0, 0, 0, 0, 0, 0, 0, 0, 0, 0, 0, 0, 0, 0, 0, 0, 0, 0, 0, 0, 0, 0, 0, 0, 0, 0, 0, 0, 0, 0, 0, 0, 0, 0, 0, 0, 0, 0, 0, 0, 0, 0, 0, 0, 0, 0, 0, 0, 0, 0, 0, 0, 0, 0], [31, 35, 46, 48, 42, 44, 42, 36, 49, 46, 47, 31, 39, 50, 43, 40, 30, 30, 32, 50, 49, 46, 48, 31, 33, 41, 32, 33, 46, 40, 30, 43, 39, 47, 38, 41, 45, 49, 38, 45, 40, 31, 44, 44, 33, 49, 50, 42, 48, 42, 30, 47, 47, 39, 39, 33, 32, 46, 44, 36], [48, 45, 46, 43, 45, 44, 32, 45, 40, 30, 49, 35, 33, 41, 45, 50, 48, 42, 47, 45, 36, 50, 39, 43, 49, 37, 32, 35, 39, 39, 40, 32, 42, 30, 38, 45, 34, 50, 49, 44, 50, 45, 41, 39, 42, 36, 31, 49, 49, 37, 38, 49, 42, 37, 41, 48, 45, 37, 46, 48], [46, 36, 33, 41, 44, 36, 30, 48, 31, 33, 40, 32, 35, 36, 50, 35, 37, 49, 32, 36, 43, 49, 40, 30, 37, 34, 46, 49, 45, 33, 38, 37, 45, 49, 37, 45, 37, 30, 36, 39, 31, 46, 39, 48, 38, 38, 35, 37, 43, 36, 35, 32, 32, 35, 46, 40, 43, 46, 47, 35], [46, 45, 44, 37, 50, 33, 32, 42, 42, 30, 43, 44, 45, 44, 32, 31, 38, 37, 39, 35, 44, 45, 30, 40, 30, 37, 40, 33, 30, 48, 38, 45, 47, 31, 46, 31, 50, 43, 41, 40, 42, 45, 37, 38, 45, 39, 38, 30, 43, 32, 32, 39, 30, 48, 38, 34, 35, 44, 36, 31], [44, 36, 46, 44, 41, 42, 40, 30, 49, 36, 40, 46, 46, 33, 39, 33, 46, 32, 47, 43, 50, 36, 35, 50, 48, 49, 37, 46, 41, 37, 47, 32, 50, 35, 30, 39, 42, 36, 50, 50, 34, 31, 39, 46, 35, 49, 41, 50, 38, 44, 35, 31, 30, 49, 32, 41, 40, 31, 45, 34], [31, 48, 46, 34, 44, 45, 47, 30, 40, 30, 50, 35, 47, 38, 34, 34, 39, 50, 47, 30, 43, 36, 32, 49, 40, 34, 30, 38, 38, 49, 32, 44, 41, 50, 30, 49, 46, 37, 41, 50, 50, 39, 30, 38, 42, 30, 42, 33, 47, 46, 33, 45, 49, 40, 45, 37, 37, 46, 41, 30], [49, 45, 43, 38, 39, 32, 31, 33, 44, 38, 46, 43, 46, 39, 37, 46, 37, 39, 32, 47, 48, 49, 46, 42, 39, 39, 33, 30, 40, 50, 36, 46, 38, 33, 42, 46, 40, 34, 37, 32, 46, 48, 32, 31, 34, 40, 50, 31, 50, 34, 34, 37, 36, 45, 36, 39, 36, 35, 49, 37], [47, 46, 47, 50, 50, 31, 43, 38, 46, 43, 50, 38, 40, 37, 50, 30, 48, 33, 32, 36, 47, 45, 50, 50, 30, 43, 45, 33, 48, 35, 35, 49, 32, 46, 43, 35, 49, 38, 33, 46, 43, 31, 44, 36, 37, 48, 33, 34, 46, 44, 43, 33, 42, 37, 47, 48, 36, 47, 37, 34], [30, 41, 38, 48, 39, 45, 49, 35, 36, 32, 30, 41, 42, 39, 33, 50, 44, 49, 32, 49, 33, 36, 46, 30, 50, 46, 32, 38, 48, 47, 34, 39, 39, 36, 39, 46, 38, 32, 33, 35, 31, 47, 48, 42, 30, 38, 49, 42, 43, 33, 48, 38, 34, 35, 34, 35, 32, 47, 31, 31]], [[0, 0, 0, 0, 0, 0, 0, 0, 0, 0, 0, 0, 0, 0, 0, 0, 0, 0, 0, 0, 0, 0, 0, 0, 0, 0, 0, 0, 0, 0, 0, 0, 0, 0, 0, 0, 0, 0, 0, 0, 0, 0, 0, 0, 0, 0, 0, 0, 0, 0, 0, 0, 0, 0, 0, 0, 0, 0, 0, 0], [0, 0, 0, 0, 0, 0, 0, 0, 0, 0, 0, 0, 0, 0, 0, 0, 0, 0, 0, 0, 0, 0, 0, 0, 0, 0, 0, 0, 0, 0, 0, 0, 0, 0, 0, 0, 0, 0, 0, 0, 0, 0, 0, 0, 0, 0, 0, 0, 0, 0, 0, 0, 0, 0, 0, 0, 0, 0, 0, 0], [38, 37, 33, 31, 32, 44, 48, 32, 43, 46, 43, 49, 50, 45, 44, 50, 49, 42, 44, 46, 34, 49, 46, 39, 33, 37, 31, 35, 31, 47, 40, 47, 39, 45, 45, 45, 39, 37, 31, 43, 49, 38, 42, 50, 49, 43, 30, 47, 47, 30, 45, 34, 43, 31, 49, 36, 47, 34, 31, 30], [41, 31, 31, 41, 38, 47, 36, 38, 42, 30, 32, 32, 39, 39, 38, 35, 34, 40, 34, 40, 49, 41, 45, 40, 46, 34, 50, 35, 33, 44, 35, 36, 50, 41, 37, 44, 47, 48, 48, 45, 42, 35, 49, 41, 38, 34, 45, 38, 37, 30, 41, 46, 43, 47, 31, 39, 49, 47, 30, 31], [47, 39, 43, 38, 46, 41, 36, 50, 46, 41, 33, 37, 31, 35, 36, 39, 34, 45, 49, 38, 34, 48, 36, 31, 44, 32, 48, 45, 49, 43, 40, 30, 42, 45, 43, 30, 34, 47, 43, 43, 34, 50, 30, 30, 31, 47, 31, 35, 38, 32, 49, 39, 44, 41, 40, 33, 41, 35, 37, 45], [46, 37, 49, 41, 33, 46, 37, 34, 34, 40, 31, 43, 39, 50, 30, 46, 35, 32, 33, 32, 32, 37, 33, 37, 34, 38, 35, 31, 31, 39, 50, 48, 31, 38, 35, 50, 49, 37, 34, 36, 41, 35, 45, 42, 37, 30, 35, 38, 37, 38, 40, 36, 36, 43, 34, 33, 43, 50, 35, 37], [37, 31, 44, 37, 39, 48, 36, 30, 34, 32, 40, 43, 37, 39, 36, 35, 49, 41, 38, 49, 46, 49, 30, 49, 37, 30, 39, 32, 45, 31, 45, 46, 35, 38, 50, 46, 42, 47, 41, 32, 47, 46, 40, 32, 34, 39, 31, 43, 41, 47, 44, 38, 30, 32, 47, 34, 47, 39, 41, 33], [31, 30, 46, 47, 43, 40, 40, 38, 39, 31, 37, 35, 38, 30, 47, 47, 50, 34, 36, 41, 30, 47, 48, 39, 49, 44, 31, 45, 42, 50, 32, 48, 49, 34, 40, 45, 34, 38, 49, 36, 40, 34, 43, 42, 35, 33, 46, 36, 45, 33, 32, 37, 49, 34, 30, 39, 49, 41, 38, 42], [35, 45, 44, 42, 31, 32, 50, 42, 33, 47, 36, 33, 38, 47, 39, 41, 30, 35, 45, 30, 49, 49, 34, 33, 38, 45, 31, 37, 42, 37, 41, 40, 41, 31, 45, 33, 43, 44, 33, 44, 31, 39, 45, 40, 40, 48, 50, 44, 47, 48, 37, 41, 31, 39, 42, 38, 31, 38, 45, 32], [32, 43, 46, 37, 30, 35, 39, 30, 45, 41, 33, 43, 46, 41, 30, 47, 42, 41, 49, 30, 42, 35, 32, 43, 38, 32, 31, 48, 30, 45, 37, 31, 33, 31, 44, 50, 48, 39, 46, 41, 41, 49, 48, 30, 38, 42, 35, 41, 50, 40, 31, 43, 48, 36, 45, 40, 32, 38, 48, 39]], [[0, 0, 0, 0, 0, 0, 0, 0, 0, 0, 0, 0, 0, 0, 0, 0, 0, 0, 0, 0, 0, 0, 0, 0, 0, 0, 0, 0, 0, 0, 0, 0, 0, 0, 0, 0, 0, 0, 0, 0, 0, 0, 0, 0, 0, 0, 0, 0, 0, 0, 0, 0, 0, 0, 0, 0, 0, 0, 0, 0], [0, 0, 0, 0, 0, 0, 0, 0, 0, 0, 0, 0, 0, 0, 0, 0, 0, 0, 0, 0, 0, 0, 0, 0, 0, 0, 0, 0, 0, 0, 0, 0, 0, 0, 0, 0, 0, 0, 0, 0, 0, 0, 0, 0, 0, 0, 0, 0, 0, 0, 0, 0, 0, 0, 0, 0, 0, 0, 0, 0], [0, 0, 0, 0, 0, 0, 0, 0, 0, 0, 0, 0, 0, 0, 0, 0, 0, 0, 0, 0, 0, 0, 0, 0, 0, 0, 0, 0, 0, 0, 0, 0, 0, 0, 0, 0, 0, 0, 0, 0, 0, 0, 0, 0, 0, 0, 0, 0, 0, 0, 0, 0, 0, 0, 0, 0, 0, 0, 0, 0], [38, 43, 34, 48, 38, 44, 32, 46, 34, 31, 45, 34, 32, 49, 33, 41, 43, 42, 34, 45, 34, 48, 47, 34, 37, 45, 47, 48, 33, 45, 47, 32, 44, 38, 31, 32, 35, 34, 43, 48, 46, 43, 46, 40, 32, 38, 33, 46, 45, 40, 35, 46, 37, 44, 32, 48, 45, 46, 33, 43], [44, 45, 40, 43, 43, 45, 38, 32, 48, 46, 34, 44, 33, 38, 31, 49, 43, 36, 33, 33, 36, 44, 44, 31, 35, 42, 48, 35, 32, 42, 47, 48, 33, 33, 44, 34, 41, 47, 50, 39, 35, 31, 47, 34, 48, 43, 40, 33, 50, 39, 48, 49, 34, 42, 46, 36, 45, 42, 41, 36], [44, 44, 43, 34, 31, 38, 39, 44, 41, 49, 46, 38, 49, 43, 50, 30, 49, 50, 48, 44, 41, 36, 39, 35, 36, 49, 39, 47, 33, 31, 34, 43, 35, 42, 40, 33, 37, 30, 37, 32, 40, 38, 44, 33, 30, 50, 35, 40, 30, 48, 40, 50, 50, 41, 37, 48, 46, 38, 50, 49], [46, 31, 43, 46, 32, 45, 46, 48, 44, 45, 34, 49, 40, 35, 45, 35, 43, 50, 31, 41, 30, 35, 41, 47, 37, 44, 44, 47, 32, 36, 33, 50, 42, 45, 40, 44, 44, 30, 46, 47, 42, 37, 45, 31, 32, 32, 32, 37, 39, 38, 45, 30, 50, 40, 41, 39, 46, 33, 40, 39], [49, 44, 45, 40, 40, 31, 48, 46, 34, 41, 41, 37, 40, 38, 47, 49, 30, 41, 48, 38, 38, 38, 30, 31, 36, 47, 50, 47, 46, 44, 39, 30, 39, 47, 48, 45, 47, 32, 43, 31, 46, 30, 36, 30, 44, 46, 46, 49, 34, 50, 44, 37, 42, 42, 49, 34, 46, 48, 46, 30], [34, 36, 45, 46, 45, 36, 42, 32, 40, 42, 43, 40, 35, 37, 35, 49, 46, 38, 42, 50, 45, 38, 44, 45, 39, 39, 44, 43, 49, 36, 41, 37, 49, 46, 30, 45, 30, 45, 46, 49, 36, 33, 50, 49, 40, 39, 32, 35, 37, 35, 36, 42, 34, 31, 34, 34, 34, 45, 44, 31], [41, 32, 42, 47, 39, 42, 49, 32, 39, 39, 46, 32, 47, 33, 32, 30, 50, 39, 41, 46, 31, 44, 37, 41, 33, 45, 43, 41, 45, 36, 50, 46, 37, 31, 48, 40, 37, 38, 48, 39, 47, 44, 41, 31, 49, 41, 50, 34, 43, 50, 40, 50, 34, 43, 46, 44, 31, 42, 37, 44]], [[0, 0, 0, 0, 0, 0, 0, 0, 0, 0, 0, 0, 0, 0, 0, 0, 0, 0, 0, 0, 0, 0, 0, 0, 0, 0, 0, 0, 0, 0, 0, 0, 0, 0, 0, 0, 0, 0, 0, 0, 0, 0, 0, 0, 0, 0, 0, 0, 0, 0, 0, 0, 0, 0, 0, 0, 0, 0, 0, 0], [0, 0, 0, 0, 0, 0, 0, 0, 0, 0, 0, 0, 0, 0, 0, 0, 0, 0, 0, 0, 0, 0, 0, 0, 0, 0, 0, 0, 0, 0, 0, 0, 0, 0, 0, 0, 0, 0, 0, 0, 0, 0, 0, 0, 0, 0, 0, 0, 0, 0, 0, 0, 0, 0, 0, 0, 0, 0, 0, 0], [0, 0, 0, 0, 0, 0, 0, 0, 0, 0, 0, 0, 0, 0, 0, 0, 0, 0, 0, 0, 0, 0, 0, 0, 0, 0, 0, 0, 0, 0, 0, 0, 0, 0, 0, 0, 0, 0, 0, 0, 0, 0, 0, 0, 0, 0, 0, 0, 0, 0, 0, 0, 0, 0, 0, 0, 0, 0, 0, 0], [0, 0, 0, 0, 0, 0, 0, 0, 0, 0, 0, 0, 0, 0, 0, 0, 0, 0, 0, 0, 0, 0, 0, 0, 0, 0, 0, 0, 0, 0, 0, 0, 0, 0, 0, 0, 0, 0, 0, 0, 0, 0, 0, 0, 0, 0, 0, 0, 0, 0, 0, 0, 0, 0, 0, 0, 0, 0, 0, 0], [32, 46, 44, 30, 36, 38, 37, 50, 38, 48, 30, 50, 40, 50, 32, 47, 43, 40, 32, 47, 40, 35, 45, 41, 35, 41, 31, 38, 49, 34, 49, 37, 35, 37, 35, 32, 45, 47, 48, 37, 42, 34, 36, 30, 50, 30, 32, 41, 47, 48, 37, 32, 40, 42, 48, 47, 49, 50, 34, 44], [41, 48, 50, 44, 49, 44, 40, 36, 46, 35, 46, 46, 36, 48, 50, 31, 38, 45, 34, 42, 44, 33, 49, 30, 46, 35, 43, 32, 31, 41, 40, 36, 47, 30, 36, 32, 36, 41, 32, 37, 40, 39, 41, 46, 47, 39, 49, 30, 48, 49, 34, 41, 44, 45, 33, 47, 43, 35, 31, 48], [31, 33, 45, 35, 39, 47, 32, 45, 32, 30, 40, 31, 33, 37, 45, 33, 41, 30, 47, 48, 48, 35, 48, 42, 35, 49, 47, 39, 35, 49, 36, 48, 36, 42, 34, 42, 50, 42, 31, 30, 44, 46, 47, 38, 31, 43, 50, 40, 34, 32, 32, 41, 48, 34, 43, 46, 37, 40, 48, 30], [39, 42, 50, 45, 50, 31, 50, 48, 50, 35, 45, 36, 48, 40, 42, 47, 31, 33, 42, 47, 36, 33, 48, 32, 39, 38, 42, 34, 50, 30, 40, 44, 46, 42, 30, 40, 46, 32, 49, 47, 34, 39, 42, 31, 45, 32, 37, 39, 42, 46, 34, 50, 45, 30, 39, 32, 50, 46, 45, 32], [50, 32, 43, 44, 34, 50, 45, 40, 36, 36, 39, 36, 34, 35, 46, 30, 46, 30, 49, 36, 36, 42, 49, 31, 33, 37, 31, 37, 41, 37, 47, 35, 35, 31, 30, 48, 46, 31, 34, 42, 45, 41, 39, 41, 46, 38, 33, 49, 44, 41, 44, 33, 30, 30, 46, 30, 48, 41, 46, 46], [33, 45, 50, 34, 31, 46, 31, 33, 41, 32, 34, 38, 45, 40, 44, 40, 50, 45, 42, 34, 45, 44, 30, 44, 40, 38, 44, 35, 43, 35, 45, 31, 44, 47, 31, 39, 30, 48, 35, 34, 45, 32, 44, 32, 45, 43, 30, 30, 41, 50, 30, 43, 46, 31, 37, 40, 48, 35, 48, 33]], [[0, 0, 0, 0, 0, 0, 0, 0, 0, 0, 0, 0, 0, 0, 0, 0, 0, 0, 0, 0, 0, 0, 0, 0, 0, 0, 0, 0, 0, 0, 0, 0, 0, 0, 0, 0, 0, 0, 0, 0, 0, 0, 0, 0, 0, 0, 0, 0, 0, 0, 0, 0, 0, 0, 0, 0, 0, 0, 0, 0], [0, 0, 0, 0, 0, 0, 0, 0, 0, 0, 0, 0, 0, 0, 0, 0, 0, 0, 0, 0, 0, 0, 0, 0, 0, 0, 0, 0, 0, 0, 0, 0, 0, 0, 0, 0, 0, 0, 0, 0, 0, 0, 0, 0, 0, 0, 0, 0, 0, 0, 0, 0, 0, 0, 0, 0, 0, 0, 0, 0], [0, 0, 0, 0, 0, 0, 0, 0, 0, 0, 0, 0, 0, 0, 0, 0, 0, 0, 0, 0, 0, 0, 0, 0, 0, 0, 0, 0, 0, 0, 0, 0, 0, 0, 0, 0, 0, 0, 0, 0, 0, 0, 0, 0, 0, 0, 0, 0, 0, 0, 0, 0, 0, 0, 0, 0, 0, 0, 0, 0], [0, 0, 0, 0, 0, 0, 0, 0, 0, 0, 0, 0, 0, 0, 0, 0, 0, 0, 0, 0, 0, 0, 0, 0, 0, 0, 0, 0, 0, 0, 0, 0, 0, 0, 0, 0, 0, 0, 0, 0, 0, 0, 0, 0, 0, 0, 0, 0, 0, 0, 0, 0, 0, 0, 0, 0, 0, 0, 0, 0], [0, 0, 0, 0, 0, 0, 0, 0, 0, 0, 0, 0, 0, 0, 0, 0, 0, 0, 0, 0, 0, 0, 0, 0, 0, 0, 0, 0, 0, 0, 0, 0, 0, 0, 0, 0, 0, 0, 0, 0, 0, 0, 0, 0, 0, 0, 0, 0, 0, 0, 0, 0, 0, 0, 0, 0, 0, 0, 0, 0], [30, 42, 30, 45, 30, 37, 45, 43, 42, 45, 37, 34, 36, 39, 46, 42, 44, 38, 42, 31, 35, 31, 32, 41, 34, 49, 48, 50, 46, 50, 36, 40, 41, 43, 33, 46, 49, 47, 42, 34, 45, 47, 48, 48, 31, 44, 39, 38, 35, 35, 31, 42, 38, 33, 45, 49, 34, 36, 42, 35], [37, 48, 48, 38, 30, 31, 36, 43, 42, 31, 35, 43, 40, 31, 33, 44, 33, 50, 36, 43, 43, 30, 41, 46, 35, 44, 34, 42, 48, 50, 42, 44, 48, 34, 35, 33, 43, 46, 49, 42, 44, 49, 35, 48, 40, 46, 44, 41, 44, 40, 50, 30, 33, 33, 30, 45, 48, 31, 38, 39], [32, 33, 31, 36, 49, 49, 37, 36, 35, 30, 32, 43, 35, 38, 42, 45, 45, 47, 41, 30, 49, 39, 48, 43, 47, 39, 35, 36, 46, 31, 38, 41, 49, 49, 45, 33, 50, 40, 44, 38, 49, 34, 36, 39, 30, 45, 39, 37, 36, 46, 50, 36, 32, 30, 46, 30, 41, 38, 50, 49], [41, 39, 32, 30, 31, 42, 40, 34, 44, 43, 43, 31, 42, 35, 46, 38, 30, 46, 49, 47, 40, 38, 46, 46, 40, 38, 38, 47, 39, 36, 48, 39, 37, 47, 42, 45, 45, 33, 32, 48, 43, 43, 47, 41, 36, 50, 40, 46, 33, 46, 34, 42, 37, 32, 50, 42, 44, 45, 38, 41], [45, 35, 43, 45, 38, 40, 49, 39, 36, 40, 33, 48, 37, 49, 42, 47, 50, 41, 32, 46, 34, 47, 45, 32, 39, 38, 46, 44, 48, 48, 47, 42, 44, 32, 40, 36, 45, 40, 39, 50, 49, 45, 49, 41, 40, 32, 48, 31, 50, 39, 45, 39, 36, 33, 36, 47, 30, 33, 38, 45]], [[0, 0, 0, 0, 0, 0, 0, 0, 0, 0, 0, 0, 0, 0, 0, 0, 0, 0, 0, 0, 0, 0, 0, 0, 0, 0, 0, 0, 0, 0, 0, 0, 0, 0, 0, 0, 0, 0, 0, 0, 0, 0, 0, 0, 0, 0, 0, 0, 0, 0, 0, 0, 0, 0, 0, 0, 0, 0, 0, 0], [0, 0, 0, 0, 0, 0, 0, 0, 0, 0, 0, 0, 0, 0, 0, 0, 0, 0, 0, 0, 0, 0, 0, 0, 0, 0, 0, 0, 0, 0, 0, 0, 0, 0, 0, 0, 0, 0, 0, 0, 0, 0, 0, 0, 0, 0, 0, 0, 0, 0, 0, 0, 0, 0, 0, 0, 0, 0, 0, 0], [0, 0, 0, 0, 0, 0, 0, 0, 0, 0, 0, 0, 0, 0, 0, 0, 0, 0, 0, 0, 0, 0, 0, 0, 0, 0, 0, 0, 0, 0, 0, 0, 0, 0, 0, 0, 0, 0, 0, 0, 0, 0, 0, 0, 0, 0, 0, 0, 0, 0, 0, 0, 0, 0, 0, 0, 0, 0, 0, 0], [0, 0, 0, 0, 0, 0, 0, 0, 0, 0, 0, 0, 0, 0, 0, 0, 0, 0, 0, 0, 0, 0, 0, 0, 0, 0, 0, 0, 0, 0, 0, 0, 0, 0, 0, 0, 0, 0, 0, 0, 0, 0, 0, 0, 0, 0, 0, 0, 0, 0, 0, 0, 0, 0, 0, 0, 0, 0, 0, 0], [0, 0, 0, 0, 0, 0, 0, 0, 0, 0, 0, 0, 0, 0, 0, 0, 0, 0, 0, 0, 0, 0, 0, 0, 0, 0, 0, 0, 0, 0, 0, 0, 0, 0, 0, 0, 0, 0, 0, 0, 0, 0, 0, 0, 0, 0, 0, 0, 0, 0, 0, 0, 0, 0, 0, 0, 0, 0, 0, 0], [0, 0, 0, 0, 0, 0, 0, 0, 0, 0, 0, 0, 0, 0, 0, 0, 0, 0, 0, 0, 0, 0, 0, 0, 0, 0, 0, 0, 0, 0, 0, 0, 0, 0, 0, 0, 0, 0, 0, 0, 0, 0, 0, 0, 0, 0, 0, 0, 0, 0, 0, 0, 0, 0, 0, 0, 0, 0, 0, 0], [42, 44, 45, 50, 30, 42, 37, 39, 40, 43, 44, 35, 38, 46, 46, 34, 31, 48, 45, 31, 39, 48, 30, 41, 37, 44, 30, 34, 46, 46, 40, 44, 39, 32, 42, 38, 47, 47, 37, 34, 36, 48, 35, 46, 35, 38, 40, 38, 33, 45, 40, 46, 46, 48, 37, 34, 34, 44, 45, 31], [45, 49, 45, 48, 47, 34, 50, 32, 49, 36, 36, 31, 49, 46, 36, 39, 33, 44, 45, 47, 33, 45, 30, 41, 32, 43, 39, 38, 44, 48, 36, 46, 31, 50, 36, 32, 33, 40, 48, 45, 41, 37, 30, 42, 42, 44, 37, 36, 35, 33, 36, 32, 40, 31, 43, 34, 37, 46, 44, 30], [43, 46, 41, 33, 40, 35, 47, 49, 43, 47, 48, 49, 46, 46, 41, 47, 36, 34, 38, 32, 41, 49, 37, 41, 45, 37, 43, 46, 41, 33, 43, 36, 46, 35, 43, 43, 38, 32, 30, 47, 32, 32, 34, 43, 48, 34, 38, 39, 45, 36, 40, 49, 49, 41, 48, 33, 50, 39, 47, 50], [45, 48, 42, 35, 44, 31, 42, 50, 32, 40, 41, 49, 42, 40, 46, 30, 45, 32, 47, 32, 45, 48, 37, 45, 49, 47, 45, 49, 39, 31, 43, 45, 44, 42, 42, 44, 33, 49, 49, 32, 41, 40, 41, 34, 38, 45, 44, 50, 49, 48, 32, 35, 49, 39, 38, 37, 38, 33, 38, 43]], [[0, 0, 0, 0, 0, 0, 0, 0, 0, 0, 0, 0, 0, 0, 0, 0, 0, 0, 0, 0, 0, 0, 0, 0, 0, 0, 0, 0, 0, 0, 0, 0, 0, 0, 0, 0, 0, 0, 0, 0, 0, 0, 0, 0, 0, 0, 0, 0, 0, 0, 0, 0, 0, 0, 0, 0, 0, 0, 0, 0], [0, 0, 0, 0, 0, 0, 0, 0, 0, 0, 0, 0, 0, 0, 0, 0, 0, 0, 0, 0, 0, 0, 0, 0, 0, 0, 0, 0, 0, 0, 0, 0, 0, 0, 0, 0, 0, 0, 0, 0, 0, 0, 0, 0, 0, 0, 0, 0, 0, 0, 0, 0, 0, 0, 0, 0, 0, 0, 0, 0], [0, 0, 0, 0, 0, 0, 0, 0, 0, 0, 0, 0, 0, 0, 0, 0, 0, 0, 0, 0, 0, 0, 0, 0, 0, 0, 0, 0, 0, 0, 0, 0, 0, 0, 0, 0, 0, 0, 0, 0, 0, 0, 0, 0, 0, 0, 0, 0, 0, 0, 0, 0, 0, 0, 0, 0, 0, 0, 0, 0], [0, 0, 0, 0, 0, 0, 0, 0, 0, 0, 0, 0, 0, 0, 0, 0, 0, 0, 0, 0, 0, 0, 0, 0, 0, 0, 0, 0, 0, 0, 0, 0, 0, 0, 0, 0, 0, 0, 0, 0, 0, 0, 0, 0, 0, 0, 0, 0, 0, 0, 0, 0, 0, 0, 0, 0, 0, 0, 0, 0], [0, 0, 0, 0, 0, 0, 0, 0, 0, 0, 0, 0, 0, 0, 0, 0, 0, 0, 0, 0, 0, 0, 0, 0, 0, 0, 0, 0, 0, 0, 0, 0, 0, 0, 0, 0, 0, 0, 0, 0, 0, 0, 0, 0, 0, 0, 0, 0, 0, 0, 0, 0, 0, 0, 0, 0, 0, 0, 0, 0], [0, 0, 0, 0, 0, 0, 0, 0, 0, 0, 0, 0, 0, 0, 0, 0, 0, 0, 0, 0, 0, 0, 0, 0, 0, 0, 0, 0, 0, 0, 0, 0, 0, 0, 0, 0, 0, 0, 0, 0, 0, 0, 0, 0, 0, 0, 0, 0, 0, 0, 0, 0, 0, 0, 0, 0, 0, 0, 0, 0], [0, 0, 0, 0, 0, 0, 0, 0, 0, 0, 0, 0, 0, 0, 0, 0, 0, 0, 0, 0, 0, 0, 0, 0, 0, 0, 0, 0, 0, 0, 0, 0, 0, 0, 0, 0, 0, 0, 0, 0, 0, 0, 0, 0, 0, 0, 0, 0, 0, 0, 0, 0, 0, 0, 0, 0, 0, 0, 0, 0], [49, 31, 30, 47, 45, 39, 30, 50, 36, 50, 41, 39, 36, 31, 39, 38, 39, 46, 42, 35, 45, 41, 32, 37, 32, 31, 30, 36, 48, 33, 42, 31, 48, 40, 32, 34, 32, 43, 50, 39, 39, 49, 47, 42, 50, 34, 31, 47, 33, 30, 36, 38, 35, 50, 40, 32, 49, 35, 33, 34], [46, 38, 35, 33, 44, 44, 36, 31, 49, 48, 42, 41, 36, 43, 32, 48, 44, 45, 42, 31, 46, 44, 36, 35, 43, 50, 49, 47, 46, 44, 45, 48, 38, 39, 37, 46, 32, 49, 42, 40, 36, 45, 36, 35, 31, 38, 30, 34, 43, 40, 49, 34, 33, 33, 31, 39, 41, 49, 47, 40], [34, 36, 48, 45, 46, 43, 43, 34, 47, 30, 33, 36, 38, 45, 37, 42, 37, 40, 50, 45, 41, 39, 38, 43, 32, 34, 45, 44, 42, 35, 49, 44, 32, 47, 33, 44, 43, 42, 39, 39, 30, 39, 37, 34, 36, 36, 42, 47, 33, 31, 47, 42, 40, 32, 39, 35, 47, 39, 32, 33]], [[0, 0, 0, 0, 0, 0, 0, 0, 0, 0, 0, 0, 0, 0, 0, 0, 0, 0, 0, 0, 0, 0, 0, 0, 0, 0, 0, 0, 0, 0, 0, 0, 0, 0, 0, 0, 0, 0, 0, 0, 0, 0, 0, 0, 0, 0, 0, 0, 0, 0, 0, 0, 0, 0, 0, 0, 0, 0, 0, 0], [0, 0, 0, 0, 0, 0, 0, 0, 0, 0, 0, 0, 0, 0, 0, 0, 0, 0, 0, 0, 0, 0, 0, 0, 0, 0, 0, 0, 0, 0, 0, 0, 0, 0, 0, 0, 0, 0, 0, 0, 0, 0, 0, 0, 0, 0, 0, 0, 0, 0, 0, 0, 0, 0, 0, 0, 0, 0, 0, 0], [0, 0, 0, 0, 0, 0, 0, 0, 0, 0, 0, 0, 0, 0, 0, 0, 0, 0, 0, 0, 0, 0, 0, 0, 0, 0, 0, 0, 0, 0, 0, 0, 0, 0, 0, 0, 0, 0, 0, 0, 0, 0, 0, 0, 0, 0, 0, 0, 0, 0, 0, 0, 0, 0, 0, 0, 0, 0, 0, 0], [0, 0, 0, 0, 0, 0, 0, 0, 0, 0, 0, 0, 0, 0, 0, 0, 0, 0, 0, 0, 0, 0, 0, 0, 0, 0, 0, 0, 0, 0, 0, 0, 0, 0, 0, 0, 0, 0, 0, 0, 0, 0, 0, 0, 0, 0, 0, 0, 0, 0, 0, 0, 0, 0, 0, 0, 0, 0, 0, 0], [0, 0, 0, 0, 0, 0, 0, 0, 0, 0, 0, 0, 0, 0, 0, 0, 0, 0, 0, 0, 0, 0, 0, 0, 0, 0, 0, 0, 0, 0, 0, 0, 0, 0, 0, 0, 0, 0, 0, 0, 0, 0, 0, 0, 0, 0, 0, 0, 0, 0, 0, 0, 0, 0, 0, 0, 0, 0, 0, 0], [0, 0, 0, 0, 0, 0, 0, 0, 0, 0, 0, 0, 0, 0, 0, 0, 0, 0, 0, 0, 0, 0, 0, 0, 0, 0, 0, 0, 0, 0, 0, 0, 0, 0, 0, 0, 0, 0, 0, 0, 0, 0, 0, 0, 0, 0, 0, 0, 0, 0, 0, 0, 0, 0, 0, 0, 0, 0, 0, 0], [0, 0, 0, 0, 0, 0, 0, 0, 0, 0, 0, 0, 0, 0, 0, 0, 0, 0, 0, 0, 0, 0, 0, 0, 0, 0, 0, 0, 0, 0, 0, 0, 0, 0, 0, 0, 0, 0, 0, 0, 0, 0, 0, 0, 0, 0, 0, 0, 0, 0, 0, 0, 0, 0, 0, 0, 0, 0, 0, 0], [0, 0, 0, 0, 0, 0, 0, 0, 0, 0, 0, 0, 0, 0, 0, 0, 0, 0, 0, 0, 0, 0, 0, 0, 0, 0, 0, 0, 0, 0, 0, 0, 0, 0, 0, 0, 0, 0, 0, 0, 0, 0, 0, 0, 0, 0, 0, 0, 0, 0, 0, 0, 0, 0, 0, 0, 0, 0, 0, 0], [31, 32, 37, 46, 48, 36, 50, 49, 39, 45, 34, 34, 45, 33, 31, 47, 36, 41, 39, 35, 39, 32, 36, 31, 41, 42, 32, 38, 32, 36, 39, 43, 45, 47, 34, 41, 49, 46, 32, 35, 45, 30, 47, 37, 37, 50, 32, 37, 42, 42, 50, 32, 43, 37, 35, 44, 31, 43, 42, 38], [47, 38, 33, 35, 46, 42, 33, 50, 47, 37, 50, 35, 43, 31, 45, 31, 38, 35, 30, 41, 32, 34, 45, 44, 41, 39, 48, 42, 43, 37, 31, 43, 37, 35, 31, 40, 48, 41, 31, 38, 35, 40, 48, 39, 50, 42, 42, 30, 40, 50, 50, 47, 46, 44, 37, 38, 33, 46, 42, 44]], [[0, 0, 0, 0, 0, 0, 0, 0, 0, 0, 0, 0, 0, 0, 0, 0, 0, 0, 0, 0, 0, 0, 0, 0, 0, 0, 0, 0, 0, 0, 0, 0, 0, 0, 0, 0, 0, 0, 0, 0, 0, 0, 0, 0, 0, 0, 0, 0, 0, 0, 0, 0, 0, 0, 0, 0, 0, 0, 0, 0], [0, 0, 0, 0, 0, 0, 0, 0, 0, 0, 0, 0, 0, 0, 0, 0, 0, 0, 0, 0, 0, 0, 0, 0, 0, 0, 0, 0, 0, 0, 0, 0, 0, 0, 0, 0, 0, 0, 0, 0, 0, 0, 0, 0, 0, 0, 0, 0, 0, 0, 0, 0, 0, 0, 0, 0, 0, 0, 0, 0], [0, 0, 0, 0, 0, 0, 0, 0, 0, 0, 0, 0, 0, 0, 0, 0, 0, 0, 0, 0, 0, 0, 0, 0, 0, 0, 0, 0, 0, 0, 0, 0, 0, 0, 0, 0, 0, 0, 0, 0, 0, 0, 0, 0, 0, 0, 0, 0, 0, 0, 0, 0, 0, 0, 0, 0, 0, 0, 0, 0], [0, 0, 0, 0, 0, 0, 0, 0, 0, 0, 0, 0, 0, 0, 0, 0, 0, 0, 0, 0, 0, 0, 0, 0, 0, 0, 0, 0, 0, 0, 0, 0, 0, 0, 0, 0, 0, 0, 0, 0, 0, 0, 0, 0, 0, 0, 0, 0, 0, 0, 0, 0, 0, 0, 0, 0, 0, 0, 0, 0], [0, 0, 0, 0, 0, 0, 0, 0, 0, 0, 0, 0, 0, 0, 0, 0, 0, 0, 0, 0, 0, 0, 0, 0, 0, 0, 0, 0, 0, 0, 0, 0, 0, 0, 0, 0, 0, 0, 0, 0, 0, 0, 0, 0, 0, 0, 0, 0, 0, 0, 0, 0, 0, 0, 0, 0, 0, 0, 0, 0], [0, 0, 0, 0, 0, 0, 0, 0, 0, 0, 0, 0, 0, 0, 0, 0, 0, 0, 0, 0, 0, 0, 0, 0, 0, 0, 0, 0, 0, 0, 0, 0, 0, 0, 0, 0, 0, 0, 0, 0, 0, 0, 0, 0, 0, 0, 0, 0, 0, 0, 0, 0, 0, 0, 0, 0, 0, 0, 0, 0], [0, 0, 0, 0, 0, 0, 0, 0, 0, 0, 0, 0, 0, 0, 0, 0, 0, 0, 0, 0, 0, 0, 0, 0, 0, 0, 0, 0, 0, 0, 0, 0, 0, 0, 0, 0, 0, 0, 0, 0, 0, 0, 0, 0, 0, 0, 0, 0, 0, 0, 0, 0, 0, 0, 0, 0, 0, 0, 0, 0], [0, 0, 0, 0, 0, 0, 0, 0, 0, 0, 0, 0, 0, 0, 0, 0, 0, 0, 0, 0, 0, 0, 0, 0, 0, 0, 0, 0, 0, 0, 0, 0, 0, 0, 0, 0, 0, 0, 0, 0, 0, 0, 0, 0, 0, 0, 0, 0, 0, 0, 0, 0, 0, 0, 0, 0, 0, 0, 0, 0], [0, 0, 0, 0, 0, 0, 0, 0, 0, 0, 0, 0, 0, 0, 0, 0, 0, 0, 0, 0, 0, 0, 0, 0, 0, 0, 0, 0, 0, 0, 0, 0, 0, 0, 0, 0, 0, 0, 0, 0, 0, 0, 0, 0, 0, 0, 0, 0, 0, 0, 0, 0, 0, 0, 0, 0, 0, 0, 0, 0], [43, 45, 37, 32, 43, 34, 49, 42, 37, 46, 36, 38, 35, 38, 41, 41, 50, 40, 47, 38, 37, 42, 46, 49, 50, 32, 49, 30, 42, 48, 39, 49, 49, 37, 45, 39, 35, 42, 44, 48, 45, 47, 39, 40, 49, 48, 43, 43, 50, 41, 45, 36, 47, 37, 36, 41, 49, 44, 36, 36]], [[0, 0, 0, 0, 0, 0, 0, 0, 0, 0, 0, 0, 0, 0, 0, 0, 0, 0, 0, 0, 0, 0, 0, 0, 0, 0, 0, 0, 0, 0, 0, 0, 0, 0, 0, 0, 0, 0, 0, 0, 0, 0, 0, 0, 0, 0, 0, 0, 0, 0, 0, 0, 0, 0, 0, 0, 0, 0, 0, 0], [0, 0, 0, 0, 0, 0, 0, 0, 0, 0, 0, 0, 0, 0, 0, 0, 0, 0, 0, 0, 0, 0, 0, 0, 0, 0, 0, 0, 0, 0, 0, 0, 0, 0, 0, 0, 0, 0, 0, 0, 0, 0, 0, 0, 0, 0, 0, 0, 0, 0, 0, 0, 0, 0, 0, 0, 0, 0, 0, 0], [0, 0, 0, 0, 0, 0, 0, 0, 0, 0, 0, 0, 0, 0, 0, 0, 0, 0, 0, 0, 0, 0, 0, 0, 0, 0, 0, 0, 0, 0, 0, 0, 0, 0, 0, 0, 0, 0, 0, 0, 0, 0, 0, 0, 0, 0, 0, 0, 0, 0, 0, 0, 0, 0, 0, 0, 0, 0, 0, 0], [0, 0, 0, 0, 0, 0, 0, 0, 0, 0, 0, 0, 0, 0, 0, 0, 0, 0, 0, 0, 0, 0, 0, 0, 0, 0, 0, 0, 0, 0, 0, 0, 0, 0, 0, 0, 0, 0, 0, 0, 0, 0, 0, 0, 0, 0, 0, 0, 0, 0, 0, 0, 0, 0, 0, 0, 0, 0, 0, 0], [0, 0, 0, 0, 0, 0, 0, 0, 0, 0, 0, 0, 0, 0, 0, 0, 0, 0, 0, 0, 0, 0, 0, 0, 0, 0, 0, 0, 0, 0, 0, 0, 0, 0, 0, 0, 0, 0, 0, 0, 0, 0, 0, 0, 0, 0, 0, 0, 0, 0, 0, 0, 0, 0, 0, 0, 0, 0, 0, 0], [0, 0, 0, 0, 0, 0, 0, 0, 0, 0, 0, 0, 0, 0, 0, 0, 0, 0, 0, 0, 0, 0, 0, 0, 0, 0, 0, 0, 0, 0, 0, 0, 0, 0, 0, 0, 0, 0, 0, 0, 0, 0, 0, 0, 0, 0, 0, 0, 0, 0, 0, 0, 0, 0, 0, 0, 0, 0, 0, 0], [0, 0, 0, 0, 0, 0, 0, 0, 0, 0, 0, 0, 0, 0, 0, 0, 0, 0, 0, 0, 0, 0, 0, 0, 0, 0, 0, 0, 0, 0, 0, 0, 0, 0, 0, 0, 0, 0, 0, 0, 0, 0, 0, 0, 0, 0, 0, 0, 0, 0, 0, 0, 0, 0, 0, 0, 0, 0, 0, 0], [0, 0, 0, 0, 0, 0, 0, 0, 0, 0, 0, 0, 0, 0, 0, 0, 0, 0, 0, 0, 0, 0, 0, 0, 0, 0, 0, 0, 0, 0, 0, 0, 0, 0, 0, 0, 0, 0, 0, 0, 0, 0, 0, 0, 0, 0, 0, 0, 0, 0, 0, 0, 0, 0, 0, 0, 0, 0, 0, 0], [0, 0, 0, 0, 0, 0, 0, 0, 0, 0, 0, 0, 0, 0, 0, 0, 0, 0, 0, 0, 0, 0, 0, 0, 0, 0, 0, 0, 0, 0, 0, 0, 0, 0, 0, 0, 0, 0, 0, 0, 0, 0, 0, 0, 0, 0, 0, 0, 0, 0, 0, 0, 0, 0, 0, 0, 0, 0, 0, 0], [0, 0, 0, 0, 0, 0, 0, 0, 0, 0, 0, 0, 0, 0, 0, 0, 0, 0, 0, 0, 0, 0, 0, 0, 0, 0, 0, 0, 0, 0, 0, 0, 0, 0, 0, 0, 0, 0, 0, 0, 0, 0, 0, 0, 0, 0, 0, 0, 0, 0, 0, 0, 0, 0, 0, 0, 0, 0, 0, 0]]];

q = [[[23], [17], [23], [17], [10], [23], [21], [14], [11], [17], [16], [16], [21], [20], [9], [24], [15], [6], [23], [15], [22], [7], [14], [5], [7], [20], [10], [22], [8], [9], [23], [24], [6], [11], [25], [20], [22], [5], [9], [13], [25], [5], [18], [8], [10], [15], [23], [21], [18], [23], [11], [6], [8], [11], [12], [12], [8], [14], [10], [19]], [[12], [15], [10], [24], [25], [16], [21], [25], [9], [10], [18], [14], [17], [22], [7], [15], [15], [18], [18], [24], [25], [19], [13], [22], [15], [7], [23], [12], [8], [5], [16], [8], [24], [23], [19], [7], [13], [9], [23], [5], [10], [8], [8], [25], [19], [10], [11], [16], [16], [20], [22], [25], [17], [23], [15], [9], [18], [13], [11], [8]], [[18], [10], [24], [25], [13], [10], [24], [12], [25], [21], [17], [13], [5], [18], [25], [8], [16], [12], [7], [23], [8], [24], [15], [14], [22], [7], [20], [21], [16], [17], [15], [23], [22], [16], [11], [12], [20], [21], [14], [8], [21], [10], [5], [7], [21], [14], [8], [9], [21], [25], [8], [14], [7], [17], [13], [12], [16], [7], [21], [6]], [[20], [25], [21], [7], [5], [25], [7], [19], [12], [15], [25], [11], [8], [6], [25], [12], [9], [22], [5], [13], [18], [25], [19], [6], [15], [7], [14], [18], [8], [22], [8], [10], [9], [8], [19], [16], [7], [13], [10], [7], [11], [8], [5], [11], [23], [6], [10], [24], [15], [22], [8], [12], [11], [16], [16], [11], [12], [16], [16], [6]], [[12], [11], [21], [21], [15], [10], [11], [10], [24], [20], [20], [9], [11], [21], [14], [12], [17], [12], [5], [17], [22], [20], [23], [17], [10], [5], [19], [5], [17], [22], [17], [12], [19], [14], [21], [17], [18], [21], [6], [16], [14], [13], [10], [11], [15], [8], [7], [21], [18], [12], [11], [21], [15], [6], [14], [25], [6], [12], [24], [20]], [[21], [7], [11], [6], [14], [8], [5], [5], [9], [24], [20], [25], [17], [8], [7], [5], [19], [5], [8], [21], [7], [8], [11], [24], [19], [17], [16], [16], [7], [17], [23], [8], [20], [13], [14], [16], [25], [19], [19], [15], [21], [13], [19], [12], [9], [20], [24], [5], [9], [10], [7], [18], [10], [24], [17], [11], [5], [25], [12], [25]], [[18], [20], [23], [17], [16], [23], [24], [21], [6], [22], [7], [21], [24], [10], [24], [12], [9], [9], [21], [21], [14], [5], [7], [23], [25], [23], [14], [6], [5], [8], [13], [25], [13], [11], [23], [17], [17], [9], [20], [21], [21], [15], [7], [14], [18], [5], [20], [20], [23], [21], [12], [18], [7], [20], [10], [24], [16], [15], [9], [19]], [[20], [12], [20], [21], [6], [5], [25], [19], [12], [5], [25], [8], [25], [15], [5], [7], [21], [14], [10], [13], [5], [5], [8], [5], [15], [8], [24], [15], [8], [5], [10], [21], [10], [16], [23], [17], [19], [19], [9], [18], [8], [5], [23], [20], [13], [16], [6], [5], [21], [8], [22], [18], [9], [21], [19], [18], [14], [7], [25], [5]], [[19], [10], [23], [5], [8], [15], [21], [17], [16], [6], [16], [6], [19], [10], [7], [11], [14], [20], [24], [18], [22], [22], [14], [6], [10], [9], [11], [17], [7], [14], [23], [6], [16], [16], [13], [18], [15], [13], [9], [23], [16], [18], [18], [7], [21], [20], [24], [25], [16], [18], [21], [12], [20], [21], [13], [16], [22], [15], [18], [24]], [[21], [22], [5], [14], [23], [8], [21], [9], [25], [23], [7], [23], [5], [25], [18], [18], [24], [23], [20], [16], [21], [21], [12], [17], [12], [19], [22], [22], [14], [19], [17], [19], [15], [22], [17], [9], [18], [12], [8], [21], [14], [17], [6], [12], [13], [6], [25], [23], [19], [13], [25], [25], [5], [17], [7], [25], [25], [23], [7], [19]]];
Q = [[72], [74], [73], [64], [71], [68], [76], [66], [74], [81]];
